data/mip_solutions/furman_sahinidis/reduced_transportation/6sp1_gurobi.sol
Elapsed time: 0.0793030261993
Nodes explored: 0
Upper bound: 6.0
Lower bound: 6.0
y[0,0]=1
y[0,1]=1
y[1,2]=1
y[2,0]=1
y[2,2]=1
y[2,3]=1
q[0,2,0,2]=800.0
q[0,2,0,3]=600.0
q[0,3,0,3]=206.0
q[0,3,1,3]=4258.8
q[0,3,1,4]=575.2
q[0,4,0,4]=320.0
q[0,4,0,5]=160.0
q[0,4,1,4]=80.0
q[0,5,0,5]=1120.0
q[1,0,2,3]=1666.0
q[1,1,2,3]=238.0
q[1,2,2,2]=527.0
q[1,2,2,3]=663.0
q[1,3,2,3]=2142.0
q[2,3,0,3]=2074.0
q[2,3,2,3]=34.0
q[2,3,3,5]=3940.0
q[2,4,3,5]=672.0
q[2,5,3,5]=1344.0
